CKP/n50_Instance_2.dat
param n := 50;
param k1 := 28;
param k2 := 48;
param k3 := 52;

param M3 := 36;
param M2 := 579;
param M1 := 11637;
param b3p := 1888;
param b3 := 1889;
#param b2p := 30259;
#param b2 := 30260;
#param bp := 367732;
#param b := 367733;

param: p1   p2   p3   r   := 
1  1  1  1  -1
2  1  1  1  0
3  1  1  1  1
4  1  1  2  -1
5  1  1  2  0
6  1  1  2  1
7  1  1  3  -1
8  1  1  3  0
9  1  1  3  1
10  1  2  1  -1
11  1  2  1  0
12  1  2  1  1
13  1  2  2  -1
14  1  2  2  0
15  1  2  2  1
16  1  2  3  -1
17  1  2  3  0
18  1  2  3  1
19  1  3  1  -1
20  1  3  1  0
21  1  3  1  1
22  1  3  2  -1
23  1  3  2  0
24  1  1  1  -1
25  1  1  1  1
26  1  1  2  -1
27  1  1  2  0
28  1  1  3  -1
29  1  1  3  0
30  1  2  1  -1
31  1  2  1  1
32  1  2  2  0
33  1  2  2  1
34  1  2  3  -1
35  1  2  3  0
36  1  2  3  1
37  1  3  1  -1
38  1  3  1  0
39  1  3  1  1
40  1  3  2  -1
41  1  3  2  0
42  1  3  2  1
43  1  3  3  -1
44  1  3  3  0
45  2  1  1  -1
46  2  1  1  0
47  2  1  1  1
48  2  1  2  0
49  2  1  2  1
50  2  2  1  -1;